c File: data_files/evolved_graphs/g3727.col
c
c Auto generated graph
c
p edge 100 752
e 1 2
e 1 15
e 1 17
e 1 25
e 1 35
e 1 45
e 1 49
e 1 60
e 1 62
e 1 69
e 1 96
e 1 99
e 2 20
e 2 30
e 2 32
e 2 42
e 2 46
e 2 74
e 2 84
e 2 96
e 2 98
e 2 99
e 3 11
e 3 15
e 3 17
e 3 18
e 3 21
e 3 24
e 3 28
e 3 31
e 3 33
e 3 36
e 3 48
e 3 49
e 3 67
e 3 71
e 3 84
e 3 97
e 4 5
e 4 6
e 4 8
e 4 10
e 4 23
e 4 32
e 4 33
e 4 40
e 4 57
e 4 73
e 4 95
e 4 99
e 4 100
e 5 15
e 5 18
e 5 29
e 5 32
e 5 36
e 5 39
e 5 40
e 5 47
e 5 50
e 5 61
e 5 68
e 5 70
e 5 78
e 5 81
e 5 89
e 5 98
e 6 9
e 6 11
e 6 18
e 6 19
e 6 24
e 6 31
e 6 37
e 6 39
e 6 40
e 6 48
e 6 56
e 6 66
e 6 76
e 6 77
e 6 78
e 6 79
e 6 87
e 6 95
e 7 9
e 7 11
e 7 24
e 7 25
e 7 32
e 7 44
e 7 59
e 7 96
e 7 97
e 8 12
e 8 15
e 8 16
e 8 21
e 8 22
e 8 27
e 8 29
e 8 46
e 8 58
e 8 65
e 8 69
e 8 92
e 8 94
e 8 100
e 9 13
e 9 17
e 9 21
e 9 28
e 9 40
e 9 42
e 9 47
e 9 53
e 9 64
e 9 69
e 9 76
e 10 12
e 10 13
e 10 18
e 10 26
e 10 51
e 10 54
e 10 59
e 10 62
e 10 92
e 10 94
e 10 95
e 10 99
e 11 25
e 11 30
e 11 50
e 11 54
e 11 56
e 11 59
e 11 72
e 11 89
e 12 23
e 12 26
e 12 27
e 12 35
e 12 56
e 12 64
e 12 72
e 12 74
e 12 83
e 12 99
e 13 14
e 13 22
e 13 29
e 13 30
e 13 35
e 13 36
e 13 52
e 13 57
e 13 65
e 13 67
e 13 70
e 13 75
e 13 93
e 13 98
e 13 99
e 14 30
e 14 40
e 14 45
e 14 47
e 14 48
e 14 52
e 14 53
e 14 54
e 14 60
e 14 69
e 14 97
e 14 98
e 15 16
e 15 20
e 15 23
e 15 33
e 15 54
e 15 60
e 15 63
e 15 69
e 15 71
e 15 96
e 15 97
e 15 100
e 16 21
e 16 22
e 16 25
e 16 26
e 16 31
e 16 41
e 16 44
e 16 48
e 16 56
e 16 59
e 16 68
e 16 80
e 16 89
e 16 90
e 16 99
e 17 18
e 17 22
e 17 42
e 17 43
e 17 52
e 17 55
e 17 62
e 17 70
e 17 76
e 17 80
e 17 97
e 18 21
e 18 30
e 18 43
e 18 47
e 18 59
e 18 73
e 18 77
e 18 81
e 18 89
e 18 95
e 18 98
e 19 23
e 19 25
e 19 27
e 19 33
e 19 38
e 19 41
e 19 43
e 19 47
e 19 57
e 19 58
e 19 66
e 19 67
e 19 68
e 19 74
e 19 76
e 19 78
e 19 81
e 19 86
e 20 23
e 20 33
e 20 34
e 20 36
e 20 38
e 20 41
e 20 43
e 20 45
e 20 46
e 20 62
e 20 63
e 20 68
e 20 69
e 20 95
e 20 97
e 21 27
e 21 56
e 21 64
e 21 69
e 22 36
e 22 47
e 22 66
e 22 87
e 22 95
e 22 96
e 22 97
e 23 25
e 23 26
e 23 38
e 23 40
e 23 41
e 23 42
e 23 48
e 23 58
e 23 59
e 23 60
e 23 79
e 23 80
e 23 85
e 23 93
e 23 96
e 24 27
e 24 36
e 24 54
e 24 55
e 24 56
e 24 61
e 24 76
e 24 79
e 24 100
e 25 33
e 25 38
e 25 46
e 25 50
e 25 51
e 25 60
e 25 86
e 26 31
e 26 32
e 26 34
e 26 43
e 26 45
e 26 46
e 26 58
e 26 66
e 26 72
e 26 73
e 26 86
e 26 100
e 27 28
e 27 31
e 27 32
e 27 38
e 27 41
e 27 43
e 27 45
e 27 53
e 27 56
e 27 59
e 27 66
e 27 70
e 27 71
e 27 72
e 28 37
e 28 39
e 28 44
e 28 54
e 28 59
e 28 61
e 28 64
e 28 68
e 28 84
e 28 88
e 28 95
e 28 98
e 29 33
e 29 43
e 29 44
e 29 47
e 29 59
e 29 64
e 29 70
e 29 79
e 29 91
e 29 95
e 30 35
e 30 37
e 30 39
e 30 54
e 30 56
e 30 61
e 30 62
e 30 64
e 30 67
e 30 72
e 30 74
e 30 98
e 31 39
e 31 40
e 31 51
e 31 54
e 31 79
e 31 89
e 31 95
e 31 97
e 31 98
e 32 36
e 32 43
e 32 46
e 32 49
e 32 59
e 32 62
e 32 71
e 32 85
e 32 89
e 32 91
e 32 100
e 33 39
e 33 42
e 33 44
e 33 46
e 33 52
e 33 64
e 33 68
e 33 70
e 33 71
e 33 73
e 33 79
e 33 96
e 33 98
e 34 35
e 34 37
e 34 41
e 34 53
e 34 60
e 34 65
e 34 79
e 34 98
e 35 51
e 35 55
e 35 58
e 35 63
e 35 64
e 35 65
e 35 67
e 35 82
e 36 39
e 36 47
e 36 52
e 36 55
e 36 60
e 36 63
e 36 76
e 36 81
e 36 82
e 36 85
e 36 93
e 36 95
e 37 41
e 37 47
e 37 49
e 37 56
e 37 59
e 37 61
e 37 67
e 37 76
e 37 95
e 37 96
e 37 98
e 37 99
e 38 44
e 38 47
e 38 51
e 38 54
e 38 57
e 38 62
e 38 63
e 38 66
e 38 69
e 38 77
e 38 96
e 38 97
e 38 100
e 39 47
e 39 49
e 39 50
e 39 53
e 39 57
e 39 61
e 39 71
e 39 78
e 39 79
e 39 99
e 40 41
e 40 43
e 40 47
e 40 51
e 40 69
e 40 70
e 40 76
e 40 84
e 40 95
e 40 100
e 41 42
e 41 43
e 41 44
e 41 45
e 41 53
e 41 60
e 41 63
e 41 70
e 41 99
e 41 100
e 42 45
e 42 49
e 42 52
e 42 53
e 42 58
e 42 64
e 42 70
e 42 79
e 42 87
e 42 90
e 42 95
e 42 100
e 43 45
e 43 53
e 43 61
e 43 75
e 43 77
e 43 92
e 44 45
e 44 49
e 44 50
e 44 56
e 44 61
e 44 80
e 44 96
e 44 97
e 45 51
e 45 60
e 45 61
e 45 70
e 45 84
e 45 99
e 46 48
e 46 56
e 46 58
e 46 99
e 47 54
e 47 55
e 47 57
e 47 66
e 47 69
e 47 75
e 48 49
e 48 51
e 48 58
e 48 60
e 48 68
e 48 78
e 48 95
e 48 98
e 49 50
e 49 57
e 49 61
e 49 68
e 49 78
e 49 85
e 49 86
e 49 87
e 49 99
e 50 53
e 50 54
e 50 64
e 50 69
e 50 82
e 50 95
e 51 52
e 51 59
e 51 60
e 51 62
e 51 63
e 51 86
e 51 96
e 51 97
e 51 99
e 52 55
e 52 63
e 52 64
e 52 68
e 52 83
e 52 98
e 53 56
e 53 66
e 53 96
e 54 55
e 54 58
e 54 60
e 54 61
e 54 68
e 54 69
e 54 74
e 54 84
e 54 92
e 54 96
e 55 60
e 55 69
e 55 70
e 55 77
e 55 99
e 56 57
e 56 63
e 56 65
e 56 79
e 56 81
e 56 86
e 56 99
e 57 58
e 57 61
e 57 62
e 57 64
e 57 68
e 57 70
e 57 72
e 57 79
e 57 98
e 57 100
e 58 61
e 58 62
e 58 66
e 58 67
e 58 76
e 58 86
e 58 98
e 58 100
e 59 69
e 59 72
e 59 78
e 59 81
e 59 82
e 59 83
e 59 95
e 59 99
e 60 63
e 60 69
e 60 70
e 61 62
e 61 63
e 61 74
e 61 75
e 61 85
e 61 86
e 61 97
e 62 67
e 62 70
e 63 65
e 63 67
e 63 68
e 63 69
e 63 76
e 63 97
e 64 67
e 64 70
e 64 86
e 64 87
e 64 92
e 64 95
e 64 96
e 64 98
e 64 99
e 65 84
e 65 91
e 66 68
e 66 70
e 66 75
e 66 84
e 66 87
e 66 91
e 66 99
e 67 76
e 67 77
e 67 85
e 67 87
e 67 98
e 67 99
e 67 100
e 68 73
e 68 74
e 68 77
e 68 85
e 68 86
e 68 87
e 68 93
e 68 97
e 68 99
e 69 73
e 69 81
e 69 98
e 70 76
e 70 78
e 70 89
e 70 98
e 71 74
e 71 76
e 71 80
e 71 98
e 71 100
e 72 78
e 72 84
e 72 87
e 72 89
e 73 74
e 73 81
e 73 95
e 73 97
e 73 99
e 74 81
e 74 97
e 74 98
e 75 81
e 75 82
e 75 85
e 75 86
e 75 100
e 76 80
e 76 84
e 76 85
e 76 86
e 76 87
e 76 88
e 76 89
e 76 96
e 77 80
e 77 84
e 77 87
e 77 89
e 77 90
e 77 92
e 78 80
e 78 82
e 78 86
e 78 87
e 78 90
e 78 95
e 78 96
e 78 97
e 78 99
e 79 80
e 79 91
e 79 98
e 79 100
e 80 87
e 80 90
e 80 96
e 81 82
e 81 83
e 81 98
e 81 100
e 82 88
e 82 94
e 82 95
e 82 96
e 83 92
e 84 87
e 84 91
e 84 93
e 84 95
e 84 96
e 84 99
e 85 92
e 86 88
e 86 95
e 86 96
e 87 90
e 87 95
e 87 98
e 88 96
e 88 100
e 90 93
e 90 95
e 91 93
e 91 98
e 92 100
e 93 95
e 94 99
e 95 97
e 96 99
e 96 100
